NAME : local_6
TYPE : ATSP
DIMENSION : 9
EDGE_WEIGHT_TYPE : EXPLICIT
EDGE_WEIGHT_FORMAT : FULL_MATRIX
EDGE_WEIGHT_SECTION
0 10000000 10000000 902 10000000 751 516 10000000 902 
0 0 796 172 498 10000000 810 10000000 10000000 
0 796 0 926 10000000 10000000 834 10000000 10000000 
0 172 926 0 511 10000000 782 10000000 10000000 
0 498 10000000 511 0 10000000 10000000 10000000 10000000 
0 10000000 10000000 10000000 10000000 0 650 482 509 
0 810 834 782 10000000 650 0 1032 1032 
0 10000000 10000000 10000000 10000000 482 1032 0 200 
0 10000000 10000000 10000000 10000000 10000000 10000000 10000000 0 
EOF